50, 125044
5004, 41
5003, 33
5003, 36
5001, 41
5003, 47
5002, 17
5001, 7
5001, 33
5000, 41
5003, 3
5004, 40
5003, 24
5002, 39
5004, 33
5000, 21
5000, 26
5002, 39
5000, 24
5000, 19
5002, 6
5000, 21
5004, 21
5000, 49
5000, 15
5003, 27
5002, 47
5001, 24
5001, 43
5002, 19
5000, 24
5000, 34
5000, 43
5004, 17
5002, 5
5001, 16
5000, 11
5002, 7
5002, 6
5003, 14
5000, 2
5001, 35
5004, 9
5003, 25
5004, 3
5003, 23
5000, 8
5003, 22
5002, 28
5001, 36
5003, 21
